c Result of efficient AIG-to-CNF conversion using package CNF
p cnf 65 151
2 3 16 18 -20 0
2 3 -16 -18 -20 0
-2 20 0
-2 -16 18 0
-2 -3 0
-2 16 -18 0
3 4 -10 0
3 -4 10 0
-3 -4 -10 0
-3 4 10 0
4 -5 9 0
4 5 -9 0
-4 5 9 0
-4 -5 -9 0
5 -51 -56 0
5 -56 -6 0
5 -51 -6 0
-5 51 6 0
-5 56 6 0
-5 51 56 0
6 -52 -57 0
6 -57 -7 0
6 -52 -7 0
-6 52 7 0
-6 57 7 0
-6 52 57 0
7 -53 -58 0
7 -58 -8 0
7 -53 -8 0
-7 53 8 0
-7 58 8 0
-7 53 58 0
8 -54 -59 0
-8 54 0
-8 59 0
-9 -50 -55 0
-9 50 55 0
9 50 -55 0
9 -50 55 0
10 -11 15 0
10 11 -15 0
-10 11 15 0
-10 -11 -15 0
11 -56 -61 0
11 -61 -12 0
11 -56 -12 0
-11 56 12 0
-11 61 12 0
-11 56 61 0
12 -57 -62 0
12 -62 -13 0
12 -57 -13 0
-12 57 13 0
-12 62 13 0
-12 57 62 0
13 -58 -63 0
13 -63 -14 0
13 -58 -14 0
-13 58 14 0
-13 63 14 0
-13 58 63 0
14 -59 -64 0
-14 59 0
-14 64 0
-15 -55 -60 0
-15 55 60 0
15 55 -60 0
15 -55 60 0
16 6 -17 0
16 -6 17 0
-16 -6 -17 0
-16 6 17 0
17 51 -56 0
17 -51 56 0
-17 -51 -56 0
-17 51 56 0
18 12 -19 0
18 -12 19 0
-18 -12 -19 0
-18 12 19 0
19 56 -61 0
19 -56 61 0
-19 -56 -61 0
-19 56 61 0
20 21 26 28 -30 0
20 21 -26 -28 -30 0
-20 30 0
-20 -26 28 0
-20 -21 0
-20 26 -28 0
21 22 -24 0
21 -22 24 0
-21 -22 -24 0
-21 22 24 0
22 7 -23 0
22 -7 23 0
-22 -7 -23 0
-22 7 23 0
23 52 -57 0
23 -52 57 0
-23 -52 -57 0
-23 52 57 0
24 13 -25 0
24 -13 25 0
-24 -13 -25 0
-24 13 25 0
25 57 -62 0
25 -57 62 0
-25 -57 -62 0
-25 57 62 0
26 8 -27 0
26 -8 27 0
-26 -8 -27 0
-26 8 27 0
27 53 -58 0
27 -53 58 0
-27 -53 -58 0
-27 53 58 0
28 14 -29 0
28 -14 29 0
-28 -14 -29 0
-28 14 29 0
29 58 -63 0
29 -58 63 0
-29 -58 -63 0
-29 58 63 0
30 -54 -64 -32 0
30 54 64 -31 0
30 54 64 -32 0
30 -54 -64 -31 0
-30 54 -64 0
-30 -54 64 0
-30 31 32 0
-31 -51 52 -61 62 0
-31 51 -52 61 -62 0
-31 51 52 61 62 0
-31 -51 -52 -61 -62 0
31 -51 61 0
31 51 -61 0
31 52 -62 0
31 -52 62 0
-32 -50 53 -60 63 0
-32 50 -53 60 -63 0
-32 50 53 60 63 0
-32 -50 -53 -60 -63 0
32 -50 60 0
32 50 -60 0
32 53 -63 0
32 -53 63 0
-65 0
2 0

